set VV := 0 1 2 3 4 5 6 7 8 9 10 11 12 13 ;
set VS := 0 1 2 3 4 5 6 7 8 9 10 11 12 13 14 15 16 17 18 19 20 21 22 23 24 25 26 27 28 29 30 31 32 ;
param cv := 
0 12
1 17
2 21
3 11
4 20
5 16
6 20
7 23
8 23
9 22
10 13
11 16
12 25
13 25
;
param cs := 
0 32
1 38
2 37
3 22
4 26
5 34
6 22
7 26
8 28
9 26
10 30
11 33
12 26
13 38
14 36
15 33
16 34
17 31
18 32
19 21
20 25
21 35
22 34
23 36
24 23
25 22
26 34
27 35
28 32
29 32
30 31
31 30
32 23
;
param bv:	 0 1 2 3 4 5 6 7 8 9 10 11 12 13 := 
		0 0 0 17 0 0 11 0 0 0 0 0 0 0 0 
		1 0 0 0 0 0 11 19 14 0 22 0 0 17 0 
		2 0 0 0 24 0 0 0 0 0 0 0 0 0 0 
		3 0 0 0 0 0 0 0 0 0 0 0 14 0 0 
		4 0 0 0 0 0 0 0 0 22 0 0 0 0 0 
		5 0 0 0 0 0 0 0 0 0 0 0 0 0 21 
		6 0 0 0 0 0 0 0 0 15 0 0 0 0 0 
		7 0 0 0 0 0 0 0 0 0 18 0 0 0 0 
		8 0 0 0 0 0 0 0 0 0 0 0 0 18 0 
		9 0 0 0 0 0 0 0 0 0 0 10 0 0 0 
		10 0 0 0 0 0 0 0 0 0 0 0 0 0 0 
		11 0 0 0 0 0 0 0 0 0 0 0 0 0 0 
		12 0 0 0 0 0 0 0 0 0 0 0 0 0 13 
		13 0 0 0 0 0 0 0 0 0 0 0 0 0 0 
;
param bs:	 0 1 2 3 4 5 6 7 8 9 10 11 12 13 14 15 16 17 18 19 20 21 22 23 24 25 26 27 28 29 30 31 32 := 
		0 0 0 0 0 0 0 0 0 39 0 0 28 0 40 0 0 0 0 0 0 0 0 23 0 0 0 0 0 0 0 0 0 0 
		1 0 0 0 0 0 0 0 0 0 0 0 0 0 0 0 0 0 0 0 38 0 0 25 0 0 0 0 0 0 40 0 0 0 
		2 0 0 0 0 0 0 35 0 0 0 0 0 0 0 0 0 0 0 0 0 0 0 0 0 0 0 37 0 0 0 0 0 0 
		3 0 0 0 0 0 0 38 0 0 34 0 0 0 0 0 0 0 36 0 0 0 0 20 0 0 0 0 0 0 0 0 28 26 
		4 0 0 0 0 0 32 0 0 0 0 34 0 0 0 0 20 38 0 0 0 0 0 0 0 0 0 0 0 0 0 0 0 0 
		5 0 0 0 0 32 0 0 0 0 0 0 0 0 0 0 0 0 0 0 0 0 0 0 0 0 0 0 0 0 0 0 33 0 
		6 0 0 35 38 0 0 0 0 0 0 0 0 0 0 0 0 0 0 0 0 0 34 0 0 0 0 0 0 0 0 30 0 0 
		7 0 0 0 0 0 0 0 0 32 0 0 0 0 22 30 36 0 0 28 0 0 0 40 0 22 0 0 0 0 0 0 0 0 
		8 39 0 0 0 0 0 0 32 0 0 0 0 0 0 0 0 29 0 0 0 0 0 0 0 37 0 0 0 0 0 0 0 0 
		9 0 0 0 34 0 0 0 0 0 0 0 0 0 0 0 0 31 0 0 0 0 0 0 0 25 0 22 0 0 0 0 26 0 
		10 0 0 0 0 34 0 0 0 0 0 0 0 0 0 0 27 0 0 0 0 0 0 0 0 0 0 0 25 0 0 0 0 0 
		11 28 0 0 0 0 0 0 0 0 0 0 0 0 22 0 0 0 0 0 0 0 0 0 0 0 0 0 0 0 0 34 0 0 
		12 0 0 0 0 0 0 0 0 0 0 0 0 0 0 0 0 0 0 0 0 39 0 0 0 0 0 0 0 0 28 0 0 0 
		13 40 0 0 0 0 0 0 22 0 0 0 22 0 0 0 0 0 0 0 0 0 0 0 0 0 0 0 0 0 39 0 32 0 
		14 0 0 0 0 0 0 0 30 0 0 0 0 0 0 0 40 25 0 0 0 32 0 0 0 36 0 0 0 0 0 0 0 0 
		15 0 0 0 0 20 0 0 36 0 0 27 0 0 0 40 0 0 0 0 0 0 0 0 0 0 0 0 0 0 0 0 0 0 
		16 0 0 0 0 38 0 0 0 29 31 0 0 0 0 25 0 0 0 0 0 0 0 30 0 0 0 0 0 0 0 0 0 0 
		17 0 0 0 36 0 0 0 0 0 0 0 0 0 0 0 0 0 0 0 0 0 0 0 0 0 0 22 0 0 0 0 0 0 
		18 0 0 0 0 0 0 0 28 0 0 0 0 0 0 0 0 0 0 0 0 0 0 0 23 0 0 0 0 0 0 0 0 0 
		19 0 38 0 0 0 0 0 0 0 0 0 0 0 0 0 0 0 0 0 0 0 0 0 0 0 0 0 0 0 0 0 0 0 
		20 0 0 0 0 0 0 0 0 0 0 0 0 39 0 32 0 0 0 0 0 0 0 0 23 0 0 0 0 29 0 0 0 0 
		21 0 0 0 0 0 0 34 0 0 0 0 0 0 0 0 0 0 0 0 0 0 0 34 38 0 0 0 0 0 0 0 0 0 
		22 23 25 0 20 0 0 0 40 0 0 0 0 0 0 0 0 30 0 0 0 0 34 0 0 27 33 0 0 39 37 0 0 0 
		23 0 0 0 0 0 0 0 0 0 0 0 0 0 0 0 0 0 0 23 0 23 38 0 0 0 0 31 0 39 0 0 0 0 
		24 0 0 0 0 0 0 0 22 37 25 0 0 0 0 36 0 0 0 0 0 0 0 27 0 0 0 0 0 0 0 0 0 0 
		25 0 0 0 0 0 0 0 0 0 0 0 0 0 0 0 0 0 0 0 0 0 0 33 0 0 0 0 0 21 0 0 0 0 
		26 0 0 37 0 0 0 0 0 0 22 0 0 0 0 0 0 0 22 0 0 0 0 0 31 0 0 0 0 0 0 0 0 0 
		27 0 0 0 0 0 0 0 0 0 0 25 0 0 0 0 0 0 0 0 0 0 0 0 0 0 0 0 0 0 0 0 0 0 
		28 0 0 0 0 0 0 0 0 0 0 0 0 0 0 0 0 0 0 0 0 29 0 39 39 0 21 0 0 0 0 0 0 0 
		29 0 40 0 0 0 0 0 0 0 0 0 0 28 39 0 0 0 0 0 0 0 0 37 0 0 0 0 0 0 0 0 0 0 
		30 0 0 0 0 0 0 30 0 0 0 0 34 0 0 0 0 0 0 0 0 0 0 0 0 0 0 0 0 0 0 0 0 0 
		31 0 0 0 28 0 33 0 0 0 26 0 0 0 32 0 0 0 0 0 0 0 0 0 0 0 0 0 0 0 0 0 0 0 
		32 0 0 0 26 0 0 0 0 0 0 0 0 0 0 0 0 0 0 0 0 0 0 0 0 0 0 0 0 0 0 0 0 0 
;
